db/data/217932496288031160230455295491142620054.z3.out
-------------------
2500.132114818
